O  Pb Ti
 1.0000000000000000
     3.9332167004556298    0.0000000000000000    0.0000000000000000
     0.0000000000000000    3.9332167004556298    0.0000000000000000
     0.0000000000000000    0.0000000000000000    4.0905453684738555
 O   Pb  Ti 
   3   1   1
Direct
  0.5000000000000000  0.5000000000000000  0.1120000000000000
  0.5000000000000000  0.0000000000000000  0.6120000000000000
  0.0000000000000000  0.5000000000000000  0.6120000000000000
  0.0000000000000000  0.0000000000000000  0.0000000000000000
  0.5000000000000000  0.5000000000000000  0.5380000000000001
