O  Pb Ti
 1.0000000000000000
     3.9039999999999999    0.0000000000000000    0.0000000000000000
     0.0000000000000000    3.9039999999999999    0.0000000000000000
     0.0000000000000000    0.0000000000000000    4.1520000000000001
 O   Pb  Ti 
   3   1   1
Direct
  0.4999999999999999  0.4999999999999999 -0.0224000000000000
  0.4999999999999999  0.0000000000000000  0.4776000000000000
  0.0000000000000000  0.4999999999999999  0.4776000000000000
  0.0000000000000000  0.0000000000000000  0.0000000000000000
  0.4999999999999999  0.4999999999999999  0.4924000000000000
