O  Pb Ti
 1.0000000000000000
     3.9039999999999999    0.0000000000000000    0.0000000000000000
     0.0000000000000000    3.9039999999999999    0.0000000000000000
     0.0000000000000000    0.0000000000000000    4.1520000000000001
 O   Pb  Ti 
   3   1   1
Direct
  0.4999999999999999  0.4999999999999999 -0.1120000000000000
  0.4999999999999999  0.0000000000000000  0.3880000000000001
  0.0000000000000000  0.4999999999999999  0.3880000000000001
  0.0000000000000000  0.0000000000000000  0.0000000000000000
  0.4999999999999999  0.4999999999999999  0.4620000000000000
