O  Pb Ti
 1.0000000000000000
     3.9587577843049031    0.0000000000000000    0.0000000000000000
     0.0000000000000000    3.9587577843049031    0.0000000000000000
     0.0000000000000000    0.0000000000000000    4.0379329399910011
 O   Pb  Ti 
   3   1   1
Direct
  0.4999999999999999  0.4999999999999999  0.1120000000000000
  0.4999999999999999  0.0000000000000000  0.6120000000000000
  0.0000000000000000  0.4999999999999999  0.6120000000000000
  0.0000000000000000  0.0000000000000000  0.0000000000000000
  0.4999999999999999  0.4999999999999999  0.5380000000000000
