O  Pb Ti
 1.0000000000000000
     3.8916666666666666    0.0000000000000000    0.0000000000000000
     0.0000000000000000    3.8916666666666666    0.0000000000000000
     0.0000000000000000    0.0000000000000000    3.8916666666666666
 O   Pb  Ti 
   3   1   1
Direct
  0.5000000000000000  0.5000000000000000  0.0000000000000000
  0.5000000000000000  0.0000000000000000  0.5000000000000000
  0.0000000000000000  0.5000000000000000  0.5000000000000000
  0.0000000000000000  0.0000000000000000  0.0000000000000000
  0.5000000000000000  0.5000000000000000  0.5000000000000000
