O  Pb Ti
 1.0000000000000000
     3.9749999999999996    0.0000000000000000    0.0000000000000000
     0.0000000000000000    3.9749999999999996    0.0000000000000000
     0.0000000000000000    0.0000000000000000    3.9749999999999996
 O   Pb  Ti 
   3   1   1
Direct
  0.4999999999999999  0.4999999999999999  0.0000000000000000
  0.4999999999999999  0.0000000000000000  0.4999999999999999
  0.0000000000000000  0.4999999999999999  0.4999999999999999
  0.0000000000000000  0.0000000000000000  0.0000000000000000
  0.4999999999999999  0.4999999999999999  0.4999999999999999
