M3L BVFF export (scripts/export_lammps.py)

40 atoms
3 atom types

0.0 7.955393325452161 xlo xhi
0.0 7.955393325452161 ylo yhi
0.0 7.955393325452161 zlo zhi

Masses

1 15.999000  # O
2 207.200000  # Pb
3 47.867000  # Ti

Atoms  # charge

1 2 1.4 0 0 0
2 3 1 1.98884833136304 1.98884833136304 1.98884833136304
3 1 -0.8 1.98884833136304 1.98884833136304 0
4 1 -0.8 1.98884833136304 0 1.98884833136304
5 1 -0.8 0 1.98884833136304 1.98884833136304
6 2 1.4 0 0 3.977696662726081
7 3 1 1.98884833136304 1.98884833136304 5.966544994089122
8 1 -0.8 1.98884833136304 1.98884833136304 3.977696662726081
9 1 -0.8 1.98884833136304 0 5.966544994089122
10 1 -0.8 0 1.98884833136304 5.966544994089122
11 2 1.4 0 3.977696662726081 0
12 3 1 1.98884833136304 5.966544994089122 1.98884833136304
13 1 -0.8 1.98884833136304 5.966544994089122 0
14 1 -0.8 1.98884833136304 3.977696662726081 1.98884833136304
15 1 -0.8 0 5.966544994089122 1.98884833136304
16 2 1.4 0 3.977696662726081 3.977696662726081
17 3 1 1.98884833136304 5.966544994089122 5.966544994089122
18 1 -0.8 1.98884833136304 5.966544994089122 3.977696662726081
19 1 -0.8 1.98884833136304 3.977696662726081 5.966544994089122
20 1 -0.8 0 5.966544994089122 5.966544994089122
21 2 1.4 3.977696662726081 0 0
22 3 1 5.966544994089122 1.98884833136304 1.98884833136304
23 1 -0.8 5.966544994089122 1.98884833136304 0
24 1 -0.8 5.966544994089122 0 1.98884833136304
25 1 -0.8 3.977696662726081 1.98884833136304 1.98884833136304
26 2 1.4 3.977696662726081 0 3.977696662726081
27 3 1 5.966544994089122 1.98884833136304 5.966544994089122
28 1 -0.8 5.966544994089122 1.98884833136304 3.977696662726081
29 1 -0.8 5.966544994089122 0 5.966544994089122
30 1 -0.8 3.977696662726081 1.98884833136304 5.966544994089122
31 2 1.4 3.977696662726081 3.977696662726081 0
32 3 1 5.966544994089122 5.966544994089122 1.98884833136304
33 1 -0.8 5.966544994089122 5.966544994089122 0
34 1 -0.8 5.966544994089122 3.977696662726081 1.98884833136304
35 1 -0.8 3.977696662726081 5.966544994089122 1.98884833136304
36 2 1.4 3.977696662726081 3.977696662726081 3.977696662726081
37 3 1 5.966544994089122 5.966544994089122 5.966544994089122
38 1 -0.8 5.966544994089122 5.966544994089122 3.977696662726081
39 1 -0.8 5.966544994089122 3.977696662726081 5.966544994089122
40 1 -0.8 3.977696662726081 5.966544994089122 5.966544994089122
