M3L BVFF export (scripts/export_lammps.py)

320 atoms
3 atom types

0.0 15.91078665090432 xlo xhi
0.0 15.91078665090432 ylo yhi
0.0 15.91078665090432 zlo zhi

Masses

1 15.999000  # O
2 207.200000  # Pb
3 47.867000  # Ti

Atoms  # charge

1 2 1.4 0 0 0
2 3 1 1.98884833136304 1.98884833136304 1.98884833136304
3 1 -0.8 1.98884833136304 1.98884833136304 0
4 1 -0.8 1.98884833136304 0 1.98884833136304
5 1 -0.8 0 1.98884833136304 1.98884833136304
6 2 1.4 0 0 3.977696662726081
7 3 1 1.98884833136304 1.98884833136304 5.966544994089122
8 1 -0.8 1.98884833136304 1.98884833136304 3.977696662726081
9 1 -0.8 1.98884833136304 0 5.966544994089122
10 1 -0.8 0 1.98884833136304 5.966544994089122
11 2 1.4 0 0 7.955393325452161
12 3 1 1.98884833136304 1.98884833136304 9.944241656815201
13 1 -0.8 1.98884833136304 1.98884833136304 7.955393325452161
14 1 -0.8 1.98884833136304 0 9.944241656815201
15 1 -0.8 0 1.98884833136304 9.944241656815201
16 2 1.4 0 0 11.93308998817824
17 3 1 1.98884833136304 1.98884833136304 13.92193831954128
18 1 -0.8 1.98884833136304 1.98884833136304 11.93308998817824
19 1 -0.8 1.98884833136304 0 13.92193831954128
20 1 -0.8 0 1.98884833136304 13.92193831954128
21 2 1.4 0 3.977696662726081 0
22 3 1 1.98884833136304 5.966544994089122 1.98884833136304
23 1 -0.8 1.98884833136304 5.966544994089122 0
24 1 -0.8 1.98884833136304 3.977696662726081 1.98884833136304
25 1 -0.8 0 5.966544994089122 1.98884833136304
26 2 1.4 0 3.977696662726081 3.977696662726081
27 3 1 1.98884833136304 5.966544994089122 5.966544994089122
28 1 -0.8 1.98884833136304 5.966544994089122 3.977696662726081
29 1 -0.8 1.98884833136304 3.977696662726081 5.966544994089122
30 1 -0.8 0 5.966544994089122 5.966544994089122
31 2 1.4 0 3.977696662726081 7.955393325452161
32 3 1 1.98884833136304 5.966544994089122 9.944241656815201
33 1 -0.8 1.98884833136304 5.966544994089122 7.955393325452161
34 1 -0.8 1.98884833136304 3.977696662726081 9.944241656815201
35 1 -0.8 0 5.966544994089122 9.944241656815201
36 2 1.4 0 3.977696662726081 11.93308998817824
37 3 1 1.98884833136304 5.966544994089122 13.92193831954128
38 1 -0.8 1.98884833136304 5.966544994089122 11.93308998817824
39 1 -0.8 1.98884833136304 3.977696662726081 13.92193831954128
40 1 -0.8 0 5.966544994089122 13.92193831954128
41 2 1.4 0 7.955393325452161 0
42 3 1 1.98884833136304 9.944241656815201 1.98884833136304
43 1 -0.8 1.98884833136304 9.944241656815201 0
44 1 -0.8 1.98884833136304 7.955393325452161 1.98884833136304
45 1 -0.8 0 9.944241656815201 1.98884833136304
46 2 1.4 0 7.955393325452161 3.977696662726081
47 3 1 1.98884833136304 9.944241656815201 5.966544994089122
48 1 -0.8 1.98884833136304 9.944241656815201 3.977696662726081
49 1 -0.8 1.98884833136304 7.955393325452161 5.966544994089122
50 1 -0.8 0 9.944241656815201 5.966544994089122
51 2 1.4 0 7.955393325452161 7.955393325452161
52 3 1 1.98884833136304 9.944241656815201 9.944241656815201
53 1 -0.8 1.98884833136304 9.944241656815201 7.955393325452161
54 1 -0.8 1.98884833136304 7.955393325452161 9.944241656815201
55 1 -0.8 0 9.944241656815201 9.944241656815201
56 2 1.4 0 7.955393325452161 11.93308998817824
57 3 1 1.98884833136304 9.944241656815201 13.92193831954128
58 1 -0.8 1.98884833136304 9.944241656815201 11.93308998817824
59 1 -0.8 1.98884833136304 7.955393325452161 13.92193831954128
60 1 -0.8 0 9.944241656815201 13.92193831954128
61 2 1.4 0 11.93308998817824 0
62 3 1 1.98884833136304 13.92193831954128 1.98884833136304
63 1 -0.8 1.98884833136304 13.92193831954128 0
64 1 -0.8 1.98884833136304 11.93308998817824 1.98884833136304
65 1 -0.8 0 13.92193831954128 1.98884833136304
66 2 1.4 0 11.93308998817824 3.977696662726081
67 3 1 1.98884833136304 13.92193831954128 5.966544994089122
68 1 -0.8 1.98884833136304 13.92193831954128 3.977696662726081
69 1 -0.8 1.98884833136304 11.93308998817824 5.966544994089122
70 1 -0.8 0 13.92193831954128 5.966544994089122
71 2 1.4 0 11.93308998817824 7.955393325452161
72 3 1 1.98884833136304 13.92193831954128 9.944241656815201
73 1 -0.8 1.98884833136304 13.92193831954128 7.955393325452161
74 1 -0.8 1.98884833136304 11.93308998817824 9.944241656815201
75 1 -0.8 0 13.92193831954128 9.944241656815201
76 2 1.4 0 11.93308998817824 11.93308998817824
77 3 1 1.98884833136304 13.92193831954128 13.92193831954128
78 1 -0.8 1.98884833136304 13.92193831954128 11.93308998817824
79 1 -0.8 1.98884833136304 11.93308998817824 13.92193831954128
80 1 -0.8 0 13.92193831954128 13.92193831954128
81 2 1.4 3.977696662726081 0 0
82 3 1 5.966544994089122 1.98884833136304 1.98884833136304
83 1 -0.8 5.966544994089122 1.98884833136304 0
84 1 -0.8 5.966544994089122 0 1.98884833136304
85 1 -0.8 3.977696662726081 1.98884833136304 1.98884833136304
86 2 1.4 3.977696662726081 0 3.977696662726081
87 3 1 5.966544994089122 1.98884833136304 5.966544994089122
88 1 -0.8 5.966544994089122 1.98884833136304 3.977696662726081
89 1 -0.8 5.966544994089122 0 5.966544994089122
90 1 -0.8 3.977696662726081 1.98884833136304 5.966544994089122
91 2 1.4 3.977696662726081 0 7.955393325452161
92 3 1 5.966544994089122 1.98884833136304 9.944241656815201
93 1 -0.8 5.966544994089122 1.98884833136304 7.955393325452161
94 1 -0.8 5.966544994089122 0 9.944241656815201
95 1 -0.8 3.977696662726081 1.98884833136304 9.944241656815201
96 2 1.4 3.977696662726081 0 11.93308998817824
97 3 1 5.966544994089122 1.98884833136304 13.92193831954128
98 1 -0.8 5.966544994089122 1.98884833136304 11.93308998817824
99 1 -0.8 5.966544994089122 0 13.92193831954128
100 1 -0.8 3.977696662726081 1.98884833136304 13.92193831954128
101 2 1.4 3.977696662726081 3.977696662726081 0
102 3 1 5.966544994089122 5.966544994089122 1.98884833136304
103 1 -0.8 5.966544994089122 5.966544994089122 0
104 1 -0.8 5.966544994089122 3.977696662726081 1.98884833136304
105 1 -0.8 3.977696662726081 5.966544994089122 1.98884833136304
106 2 1.4 3.977696662726081 3.977696662726081 3.977696662726081
107 3 1 5.966544994089122 5.966544994089122 5.966544994089122
108 1 -0.8 5.966544994089122 5.966544994089122 3.977696662726081
109 1 -0.8 5.966544994089122 3.977696662726081 5.966544994089122
110 1 -0.8 3.977696662726081 5.966544994089122 5.966544994089122
111 2 1.4 3.977696662726081 3.977696662726081 7.955393325452161
112 3 1 5.966544994089122 5.966544994089122 9.944241656815201
113 1 -0.8 5.966544994089122 5.966544994089122 7.955393325452161
114 1 -0.8 5.966544994089122 3.977696662726081 9.944241656815201
115 1 -0.8 3.977696662726081 5.966544994089122 9.944241656815201
116 2 1.4 3.977696662726081 3.977696662726081 11.93308998817824
117 3 1 5.966544994089122 5.966544994089122 13.92193831954128
118 1 -0.8 5.966544994089122 5.966544994089122 11.93308998817824
119 1 -0.8 5.966544994089122 3.977696662726081 13.92193831954128
120 1 -0.8 3.977696662726081 5.966544994089122 13.92193831954128
121 2 1.4 3.977696662726081 7.955393325452161 0
122 3 1 5.966544994089122 9.944241656815201 1.98884833136304
123 1 -0.8 5.966544994089122 9.944241656815201 0
124 1 -0.8 5.966544994089122 7.955393325452161 1.98884833136304
125 1 -0.8 3.977696662726081 9.944241656815201 1.98884833136304
126 2 1.4 3.977696662726081 7.955393325452161 3.977696662726081
127 3 1 5.966544994089122 9.944241656815201 5.966544994089122
128 1 -0.8 5.966544994089122 9.944241656815201 3.977696662726081
129 1 -0.8 5.966544994089122 7.955393325452161 5.966544994089122
130 1 -0.8 3.977696662726081 9.944241656815201 5.966544994089122
131 2 1.4 3.977696662726081 7.955393325452161 7.955393325452161
132 3 1 5.966544994089122 9.944241656815201 9.944241656815201
133 1 -0.8 5.966544994089122 9.944241656815201 7.955393325452161
134 1 -0.8 5.966544994089122 7.955393325452161 9.944241656815201
135 1 -0.8 3.977696662726081 9.944241656815201 9.944241656815201
136 2 1.4 3.977696662726081 7.955393325452161 11.93308998817824
137 3 1 5.966544994089122 9.944241656815201 13.92193831954128
138 1 -0.8 5.966544994089122 9.944241656815201 11.93308998817824
139 1 -0.8 5.966544994089122 7.955393325452161 13.92193831954128
140 1 -0.8 3.977696662726081 9.944241656815201 13.92193831954128
141 2 1.4 3.977696662726081 11.93308998817824 0
142 3 1 5.966544994089122 13.92193831954128 1.98884833136304
143 1 -0.8 5.966544994089122 13.92193831954128 0
144 1 -0.8 5.966544994089122 11.93308998817824 1.98884833136304
145 1 -0.8 3.977696662726081 13.92193831954128 1.98884833136304
146 2 1.4 3.977696662726081 11.93308998817824 3.977696662726081
147 3 1 5.966544994089122 13.92193831954128 5.966544994089122
148 1 -0.8 5.966544994089122 13.92193831954128 3.977696662726081
149 1 -0.8 5.966544994089122 11.93308998817824 5.966544994089122
150 1 -0.8 3.977696662726081 13.92193831954128 5.966544994089122
151 2 1.4 3.977696662726081 11.93308998817824 7.955393325452161
152 3 1 5.966544994089122 13.92193831954128 9.944241656815201
153 1 -0.8 5.966544994089122 13.92193831954128 7.955393325452161
154 1 -0.8 5.966544994089122 11.93308998817824 9.944241656815201
155 1 -0.8 3.977696662726081 13.92193831954128 9.944241656815201
156 2 1.4 3.977696662726081 11.93308998817824 11.93308998817824
157 3 1 5.966544994089122 13.92193831954128 13.92193831954128
158 1 -0.8 5.966544994089122 13.92193831954128 11.93308998817824
159 1 -0.8 5.966544994089122 11.93308998817824 13.92193831954128
160 1 -0.8 3.977696662726081 13.92193831954128 13.92193831954128
161 2 1.4 7.955393325452161 0 0
162 3 1 9.944241656815201 1.98884833136304 1.98884833136304
163 1 -0.8 9.944241656815201 1.98884833136304 0
164 1 -0.8 9.944241656815201 0 1.98884833136304
165 1 -0.8 7.955393325452161 1.98884833136304 1.98884833136304
166 2 1.4 7.955393325452161 0 3.977696662726081
167 3 1 9.944241656815201 1.98884833136304 5.966544994089122
168 1 -0.8 9.944241656815201 1.98884833136304 3.977696662726081
169 1 -0.8 9.944241656815201 0 5.966544994089122
170 1 -0.8 7.955393325452161 1.98884833136304 5.966544994089122
171 2 1.4 7.955393325452161 0 7.955393325452161
172 3 1 9.944241656815201 1.98884833136304 9.944241656815201
173 1 -0.8 9.944241656815201 1.98884833136304 7.955393325452161
174 1 -0.8 9.944241656815201 0 9.944241656815201
175 1 -0.8 7.955393325452161 1.98884833136304 9.944241656815201
176 2 1.4 7.955393325452161 0 11.93308998817824
177 3 1 9.944241656815201 1.98884833136304 13.92193831954128
178 1 -0.8 9.944241656815201 1.98884833136304 11.93308998817824
179 1 -0.8 9.944241656815201 0 13.92193831954128
180 1 -0.8 7.955393325452161 1.98884833136304 13.92193831954128
181 2 1.4 7.955393325452161 3.977696662726081 0
182 3 1 9.944241656815201 5.966544994089122 1.98884833136304
183 1 -0.8 9.944241656815201 5.966544994089122 0
184 1 -0.8 9.944241656815201 3.977696662726081 1.98884833136304
185 1 -0.8 7.955393325452161 5.966544994089122 1.98884833136304
186 2 1.4 7.955393325452161 3.977696662726081 3.977696662726081
187 3 1 9.944241656815201 5.966544994089122 5.966544994089122
188 1 -0.8 9.944241656815201 5.966544994089122 3.977696662726081
189 1 -0.8 9.944241656815201 3.977696662726081 5.966544994089122
190 1 -0.8 7.955393325452161 5.966544994089122 5.966544994089122
191 2 1.4 7.955393325452161 3.977696662726081 7.955393325452161
192 3 1 9.944241656815201 5.966544994089122 9.944241656815201
193 1 -0.8 9.944241656815201 5.966544994089122 7.955393325452161
194 1 -0.8 9.944241656815201 3.977696662726081 9.944241656815201
195 1 -0.8 7.955393325452161 5.966544994089122 9.944241656815201
196 2 1.4 7.955393325452161 3.977696662726081 11.93308998817824
197 3 1 9.944241656815201 5.966544994089122 13.92193831954128
198 1 -0.8 9.944241656815201 5.966544994089122 11.93308998817824
199 1 -0.8 9.944241656815201 3.977696662726081 13.92193831954128
200 1 -0.8 7.955393325452161 5.966544994089122 13.92193831954128
201 2 1.4 7.955393325452161 7.955393325452161 0
202 3 1 9.944241656815201 9.944241656815201 1.98884833136304
203 1 -0.8 9.944241656815201 9.944241656815201 0
204 1 -0.8 9.944241656815201 7.955393325452161 1.98884833136304
205 1 -0.8 7.955393325452161 9.944241656815201 1.98884833136304
206 2 1.4 7.955393325452161 7.955393325452161 3.977696662726081
207 3 1 9.944241656815201 9.944241656815201 5.966544994089122
208 1 -0.8 9.944241656815201 9.944241656815201 3.977696662726081
209 1 -0.8 9.944241656815201 7.955393325452161 5.966544994089122
210 1 -0.8 7.955393325452161 9.944241656815201 5.966544994089122
211 2 1.4 7.955393325452161 7.955393325452161 7.955393325452161
212 3 1 9.944241656815201 9.944241656815201 9.944241656815201
213 1 -0.8 9.944241656815201 9.944241656815201 7.955393325452161
214 1 -0.8 9.944241656815201 7.955393325452161 9.944241656815201
215 1 -0.8 7.955393325452161 9.944241656815201 9.944241656815201
216 2 1.4 7.955393325452161 7.955393325452161 11.93308998817824
217 3 1 9.944241656815201 9.944241656815201 13.92193831954128
218 1 -0.8 9.944241656815201 9.944241656815201 11.93308998817824
219 1 -0.8 9.944241656815201 7.955393325452161 13.92193831954128
220 1 -0.8 7.955393325452161 9.944241656815201 13.92193831954128
221 2 1.4 7.955393325452161 11.93308998817824 0
222 3 1 9.944241656815201 13.92193831954128 1.98884833136304
223 1 -0.8 9.944241656815201 13.92193831954128 0
224 1 -0.8 9.944241656815201 11.93308998817824 1.98884833136304
225 1 -0.8 7.955393325452161 13.92193831954128 1.98884833136304
226 2 1.4 7.955393325452161 11.93308998817824 3.977696662726081
227 3 1 9.944241656815201 13.92193831954128 5.966544994089122
228 1 -0.8 9.944241656815201 13.92193831954128 3.977696662726081
229 1 -0.8 9.944241656815201 11.93308998817824 5.966544994089122
230 1 -0.8 7.955393325452161 13.92193831954128 5.966544994089122
231 2 1.4 7.955393325452161 11.93308998817824 7.955393325452161
232 3 1 9.944241656815201 13.92193831954128 9.944241656815201
233 1 -0.8 9.944241656815201 13.92193831954128 7.955393325452161
234 1 -0.8 9.944241656815201 11.93308998817824 9.944241656815201
235 1 -0.8 7.955393325452161 13.92193831954128 9.944241656815201
236 2 1.4 7.955393325452161 11.93308998817824 11.93308998817824
237 3 1 9.944241656815201 13.92193831954128 13.92193831954128
238 1 -0.8 9.944241656815201 13.92193831954128 11.93308998817824
239 1 -0.8 9.944241656815201 11.93308998817824 13.92193831954128
240 1 -0.8 7.955393325452161 13.92193831954128 13.92193831954128
241 2 1.4 11.93308998817824 0 0
242 3 1 13.92193831954128 1.98884833136304 1.98884833136304
243 1 -0.8 13.92193831954128 1.98884833136304 0
244 1 -0.8 13.92193831954128 0 1.98884833136304
245 1 -0.8 11.93308998817824 1.98884833136304 1.98884833136304
246 2 1.4 11.93308998817824 0 3.977696662726081
247 3 1 13.92193831954128 1.98884833136304 5.966544994089122
248 1 -0.8 13.92193831954128 1.98884833136304 3.977696662726081
249 1 -0.8 13.92193831954128 0 5.966544994089122
250 1 -0.8 11.93308998817824 1.98884833136304 5.966544994089122
251 2 1.4 11.93308998817824 0 7.955393325452161
252 3 1 13.92193831954128 1.98884833136304 9.944241656815201
253 1 -0.8 13.92193831954128 1.98884833136304 7.955393325452161
254 1 -0.8 13.92193831954128 0 9.944241656815201
255 1 -0.8 11.93308998817824 1.98884833136304 9.944241656815201
256 2 1.4 11.93308998817824 0 11.93308998817824
257 3 1 13.92193831954128 1.98884833136304 13.92193831954128
258 1 -0.8 13.92193831954128 1.98884833136304 11.93308998817824
259 1 -0.8 13.92193831954128 0 13.92193831954128
260 1 -0.8 11.93308998817824 1.98884833136304 13.92193831954128
261 2 1.4 11.93308998817824 3.977696662726081 0
262 3 1 13.92193831954128 5.966544994089122 1.98884833136304
263 1 -0.8 13.92193831954128 5.966544994089122 0
264 1 -0.8 13.92193831954128 3.977696662726081 1.98884833136304
265 1 -0.8 11.93308998817824 5.966544994089122 1.98884833136304
266 2 1.4 11.93308998817824 3.977696662726081 3.977696662726081
267 3 1 13.92193831954128 5.966544994089122 5.966544994089122
268 1 -0.8 13.92193831954128 5.966544994089122 3.977696662726081
269 1 -0.8 13.92193831954128 3.977696662726081 5.966544994089122
270 1 -0.8 11.93308998817824 5.966544994089122 5.966544994089122
271 2 1.4 11.93308998817824 3.977696662726081 7.955393325452161
272 3 1 13.92193831954128 5.966544994089122 9.944241656815201
273 1 -0.8 13.92193831954128 5.966544994089122 7.955393325452161
274 1 -0.8 13.92193831954128 3.977696662726081 9.944241656815201
275 1 -0.8 11.93308998817824 5.966544994089122 9.944241656815201
276 2 1.4 11.93308998817824 3.977696662726081 11.93308998817824
277 3 1 13.92193831954128 5.966544994089122 13.92193831954128
278 1 -0.8 13.92193831954128 5.966544994089122 11.93308998817824
279 1 -0.8 13.92193831954128 3.977696662726081 13.92193831954128
280 1 -0.8 11.93308998817824 5.966544994089122 13.92193831954128
281 2 1.4 11.93308998817824 7.955393325452161 0
282 3 1 13.92193831954128 9.944241656815201 1.98884833136304
283 1 -0.8 13.92193831954128 9.944241656815201 0
284 1 -0.8 13.92193831954128 7.955393325452161 1.98884833136304
285 1 -0.8 11.93308998817824 9.944241656815201 1.98884833136304
286 2 1.4 11.93308998817824 7.955393325452161 3.977696662726081
287 3 1 13.92193831954128 9.944241656815201 5.966544994089122
288 1 -0.8 13.92193831954128 9.944241656815201 3.977696662726081
289 1 -0.8 13.92193831954128 7.955393325452161 5.966544994089122
290 1 -0.8 11.93308998817824 9.944241656815201 5.966544994089122
291 2 1.4 11.93308998817824 7.955393325452161 7.955393325452161
292 3 1 13.92193831954128 9.944241656815201 9.944241656815201
293 1 -0.8 13.92193831954128 9.944241656815201 7.955393325452161
294 1 -0.8 13.92193831954128 7.955393325452161 9.944241656815201
295 1 -0.8 11.93308998817824 9.944241656815201 9.944241656815201
296 2 1.4 11.93308998817824 7.955393325452161 11.93308998817824
297 3 1 13.92193831954128 9.944241656815201 13.92193831954128
298 1 -0.8 13.92193831954128 9.944241656815201 11.93308998817824
299 1 -0.8 13.92193831954128 7.955393325452161 13.92193831954128
300 1 -0.8 11.93308998817824 9.944241656815201 13.92193831954128
301 2 1.4 11.93308998817824 11.93308998817824 0
302 3 1 13.92193831954128 13.92193831954128 1.98884833136304
303 1 -0.8 13.92193831954128 13.92193831954128 0
304 1 -0.8 13.92193831954128 11.93308998817824 1.98884833136304
305 1 -0.8 11.93308998817824 13.92193831954128 1.98884833136304
306 2 1.4 11.93308998817824 11.93308998817824 3.977696662726081
307 3 1 13.92193831954128 13.92193831954128 5.966544994089122
308 1 -0.8 13.92193831954128 13.92193831954128 3.977696662726081
309 1 -0.8 13.92193831954128 11.93308998817824 5.966544994089122
310 1 -0.8 11.93308998817824 13.92193831954128 5.966544994089122
311 2 1.4 11.93308998817824 11.93308998817824 7.955393325452161
312 3 1 13.92193831954128 13.92193831954128 9.944241656815201
313 1 -0.8 13.92193831954128 13.92193831954128 7.955393325452161
314 1 -0.8 13.92193831954128 11.93308998817824 9.944241656815201
315 1 -0.8 11.93308998817824 13.92193831954128 9.944241656815201
316 2 1.4 11.93308998817824 11.93308998817824 11.93308998817824
317 3 1 13.92193831954128 13.92193831954128 13.92193831954128
318 1 -0.8 13.92193831954128 13.92193831954128 11.93308998817824
319 1 -0.8 13.92193831954128 11.93308998817824 13.92193831954128
320 1 -0.8 11.93308998817824 13.92193831954128 13.92193831954128
