M3L BVFF export (scripts/export_lammps.py)

135 atoms
3 atom types

0.0 11.93308998817824 xlo xhi
0.0 11.93308998817824 ylo yhi
0.0 11.93308998817824 zlo zhi

Masses

1 15.999000  # O
2 207.200000  # Pb
3 47.867000  # Ti

Atoms  # charge

1 2 1.4 0 0 0
2 3 1 1.98884833136304 1.98884833136304 1.98884833136304
3 1 -0.8 1.98884833136304 1.98884833136304 0
4 1 -0.8 1.98884833136304 0 1.98884833136304
5 1 -0.8 0 1.98884833136304 1.98884833136304
6 2 1.4 0 0 3.977696662726081
7 3 1 1.98884833136304 1.98884833136304 5.966544994089121
8 1 -0.8 1.98884833136304 1.98884833136304 3.977696662726081
9 1 -0.8 1.98884833136304 0 5.966544994089121
10 1 -0.8 0 1.98884833136304 5.966544994089121
11 2 1.4 0 0 7.955393325452161
12 3 1 1.98884833136304 1.98884833136304 9.944241656815201
13 1 -0.8 1.98884833136304 1.98884833136304 7.955393325452161
14 1 -0.8 1.98884833136304 0 9.944241656815201
15 1 -0.8 0 1.98884833136304 9.944241656815201
16 2 1.4 0 3.977696662726081 0
17 3 1 1.98884833136304 5.966544994089121 1.98884833136304
18 1 -0.8 1.98884833136304 5.966544994089121 0
19 1 -0.8 1.98884833136304 3.977696662726081 1.98884833136304
20 1 -0.8 0 5.966544994089121 1.98884833136304
21 2 1.4 0 3.977696662726081 3.977696662726081
22 3 1 1.98884833136304 5.966544994089121 5.966544994089121
23 1 -0.8 1.98884833136304 5.966544994089121 3.977696662726081
24 1 -0.8 1.98884833136304 3.977696662726081 5.966544994089121
25 1 -0.8 0 5.966544994089121 5.966544994089121
26 2 1.4 0 3.977696662726081 7.955393325452161
27 3 1 1.98884833136304 5.966544994089121 9.944241656815201
28 1 -0.8 1.98884833136304 5.966544994089121 7.955393325452161
29 1 -0.8 1.98884833136304 3.977696662726081 9.944241656815201
30 1 -0.8 0 5.966544994089121 9.944241656815201
31 2 1.4 0 7.955393325452161 0
32 3 1 1.98884833136304 9.944241656815201 1.98884833136304
33 1 -0.8 1.98884833136304 9.944241656815201 0
34 1 -0.8 1.98884833136304 7.955393325452161 1.98884833136304
35 1 -0.8 0 9.944241656815201 1.98884833136304
36 2 1.4 0 7.955393325452161 3.977696662726081
37 3 1 1.98884833136304 9.944241656815201 5.966544994089121
38 1 -0.8 1.98884833136304 9.944241656815201 3.977696662726081
39 1 -0.8 1.98884833136304 7.955393325452161 5.966544994089121
40 1 -0.8 0 9.944241656815201 5.966544994089121
41 2 1.4 0 7.955393325452161 7.955393325452161
42 3 1 1.98884833136304 9.944241656815201 9.944241656815201
43 1 -0.8 1.98884833136304 9.944241656815201 7.955393325452161
44 1 -0.8 1.98884833136304 7.955393325452161 9.944241656815201
45 1 -0.8 0 9.944241656815201 9.944241656815201
46 2 1.4 3.977696662726081 0 0
47 3 1 5.966544994089121 1.98884833136304 1.98884833136304
48 1 -0.8 5.966544994089121 1.98884833136304 0
49 1 -0.8 5.966544994089121 0 1.98884833136304
50 1 -0.8 3.977696662726081 1.98884833136304 1.98884833136304
51 2 1.4 3.977696662726081 0 3.977696662726081
52 3 1 5.966544994089121 1.98884833136304 5.966544994089121
53 1 -0.8 5.966544994089121 1.98884833136304 3.977696662726081
54 1 -0.8 5.966544994089121 0 5.966544994089121
55 1 -0.8 3.977696662726081 1.98884833136304 5.966544994089121
56 2 1.4 3.977696662726081 0 7.955393325452161
57 3 1 5.966544994089121 1.98884833136304 9.944241656815201
58 1 -0.8 5.966544994089121 1.98884833136304 7.955393325452161
59 1 -0.8 5.966544994089121 0 9.944241656815201
60 1 -0.8 3.977696662726081 1.98884833136304 9.944241656815201
61 2 1.4 3.977696662726081 3.977696662726081 0
62 3 1 5.966544994089121 5.966544994089121 1.98884833136304
63 1 -0.8 5.966544994089121 5.966544994089121 0
64 1 -0.8 5.966544994089121 3.977696662726081 1.98884833136304
65 1 -0.8 3.977696662726081 5.966544994089121 1.98884833136304
66 2 1.4 3.977696662726081 3.977696662726081 3.977696662726081
67 3 1 5.966544994089121 5.966544994089121 5.966544994089121
68 1 -0.8 5.966544994089121 5.966544994089121 3.977696662726081
69 1 -0.8 5.966544994089121 3.977696662726081 5.966544994089121
70 1 -0.8 3.977696662726081 5.966544994089121 5.966544994089121
71 2 1.4 3.977696662726081 3.977696662726081 7.955393325452161
72 3 1 5.966544994089121 5.966544994089121 9.944241656815201
73 1 -0.8 5.966544994089121 5.966544994089121 7.955393325452161
74 1 -0.8 5.966544994089121 3.977696662726081 9.944241656815201
75 1 -0.8 3.977696662726081 5.966544994089121 9.944241656815201
76 2 1.4 3.977696662726081 7.955393325452161 0
77 3 1 5.966544994089121 9.944241656815201 1.98884833136304
78 1 -0.8 5.966544994089121 9.944241656815201 0
79 1 -0.8 5.966544994089121 7.955393325452161 1.98884833136304
80 1 -0.8 3.977696662726081 9.944241656815201 1.98884833136304
81 2 1.4 3.977696662726081 7.955393325452161 3.977696662726081
82 3 1 5.966544994089121 9.944241656815201 5.966544994089121
83 1 -0.8 5.966544994089121 9.944241656815201 3.977696662726081
84 1 -0.8 5.966544994089121 7.955393325452161 5.966544994089121
85 1 -0.8 3.977696662726081 9.944241656815201 5.966544994089121
86 2 1.4 3.977696662726081 7.955393325452161 7.955393325452161
87 3 1 5.966544994089121 9.944241656815201 9.944241656815201
88 1 -0.8 5.966544994089121 9.944241656815201 7.955393325452161
89 1 -0.8 5.966544994089121 7.955393325452161 9.944241656815201
90 1 -0.8 3.977696662726081 9.944241656815201 9.944241656815201
91 2 1.4 7.955393325452161 0 0
92 3 1 9.944241656815201 1.98884833136304 1.98884833136304
93 1 -0.8 9.944241656815201 1.98884833136304 0
94 1 -0.8 9.944241656815201 0 1.98884833136304
95 1 -0.8 7.955393325452161 1.98884833136304 1.98884833136304
96 2 1.4 7.955393325452161 0 3.977696662726081
97 3 1 9.944241656815201 1.98884833136304 5.966544994089121
98 1 -0.8 9.944241656815201 1.98884833136304 3.977696662726081
99 1 -0.8 9.944241656815201 0 5.966544994089121
100 1 -0.8 7.955393325452161 1.98884833136304 5.966544994089121
101 2 1.4 7.955393325452161 0 7.955393325452161
102 3 1 9.944241656815201 1.98884833136304 9.944241656815201
103 1 -0.8 9.944241656815201 1.98884833136304 7.955393325452161
104 1 -0.8 9.944241656815201 0 9.944241656815201
105 1 -0.8 7.955393325452161 1.98884833136304 9.944241656815201
106 2 1.4 7.955393325452161 3.977696662726081 0
107 3 1 9.944241656815201 5.966544994089121 1.98884833136304
108 1 -0.8 9.944241656815201 5.966544994089121 0
109 1 -0.8 9.944241656815201 3.977696662726081 1.98884833136304
110 1 -0.8 7.955393325452161 5.966544994089121 1.98884833136304
111 2 1.4 7.955393325452161 3.977696662726081 3.977696662726081
112 3 1 9.944241656815201 5.966544994089121 5.966544994089121
113 1 -0.8 9.944241656815201 5.966544994089121 3.977696662726081
114 1 -0.8 9.944241656815201 3.977696662726081 5.966544994089121
115 1 -0.8 7.955393325452161 5.966544994089121 5.966544994089121
116 2 1.4 7.955393325452161 3.977696662726081 7.955393325452161
117 3 1 9.944241656815201 5.966544994089121 9.944241656815201
118 1 -0.8 9.944241656815201 5.966544994089121 7.955393325452161
119 1 -0.8 9.944241656815201 3.977696662726081 9.944241656815201
120 1 -0.8 7.955393325452161 5.966544994089121 9.944241656815201
121 2 1.4 7.955393325452161 7.955393325452161 0
122 3 1 9.944241656815201 9.944241656815201 1.98884833136304
123 1 -0.8 9.944241656815201 9.944241656815201 0
124 1 -0.8 9.944241656815201 7.955393325452161 1.98884833136304
125 1 -0.8 7.955393325452161 9.944241656815201 1.98884833136304
126 2 1.4 7.955393325452161 7.955393325452161 3.977696662726081
127 3 1 9.944241656815201 9.944241656815201 5.966544994089121
128 1 -0.8 9.944241656815201 9.944241656815201 3.977696662726081
129 1 -0.8 9.944241656815201 7.955393325452161 5.966544994089121
130 1 -0.8 7.955393325452161 9.944241656815201 5.966544994089121
131 2 1.4 7.955393325452161 7.955393325452161 7.955393325452161
132 3 1 9.944241656815201 9.944241656815201 9.944241656815201
133 1 -0.8 9.944241656815201 9.944241656815201 7.955393325452161
134 1 -0.8 9.944241656815201 7.955393325452161 9.944241656815201
135 1 -0.8 7.955393325452161 9.944241656815201 9.944241656815201
