M3L BVFF export (scripts/export_lammps.py)

40 atoms
3 atom types

0.0 7.7569178 xlo xhi
0.0 7.7569178 ylo yhi
0.0 8.36770944 zlo zhi

Masses

1 15.999000  # O
2 207.200000  # Pb
3 47.867000  # Ti

Atoms  # charge

1 2 1.4 0.07327440532167399 7.701559470151809 4.183005146460557
2 2 1.4 0.127583689606594 7.651782320229895 0.05125581843505921
3 2 1.4 0.09243942213013402 3.83465209457039 4.27147375864009
4 2 1.4 7.643565572342711 3.758847227524 8.197718167569985
5 2 1.4 3.803795308269525 0.123519917940352 4.11775952196695
6 2 1.4 4.099785949618908 0.08499665950103401 0.0167262980767104
7 2 1.4 3.8426801166475 3.923329876982593 4.165670599584653
8 2 1.4 4.027588902610478 3.990613614687327 0.0431137024415616
9 3 1 1.824099957336374 1.886193541341128 2.082584645056051
10 3 1 1.946903291210362 1.888055744597374 6.41435628527497
11 3 1 1.790348832296794 5.721792755574899 2.134109234318323
12 3 1 1.946840227468648 5.735916861781851 6.444407993280691
13 3 1 5.711962336077781 1.855794025344572 2.202732066341914
14 3 1 5.818086900436565 1.932378617768218 6.262037949890612
15 3 1 5.723006558072242 5.782079598285676 2.155926530495424
16 3 1 5.818548824891555 5.814368699458312 6.352754212502823
17 1 -0.8 7.626847863100151 2.022209233303856 2.416665193416768
18 1 -0.8 7.551976618680169 1.863924361167464 6.739584968527488
19 1 -0.8 7.611155695959929 5.758705134894691 2.552918028738893
20 1 -0.8 7.632169574126019 6.017360722473361 6.830606568857164
21 1 -0.8 3.682170482916891 1.936553933912424 2.589365177069606
22 1 -0.8 3.786205333620354 2.110368155484416 6.661738745096564
23 1 -0.8 3.71286072819259 5.984539419170467 2.523788609667648
24 1 -0.8 3.747878402770555 5.788676701736221 6.73572653402761
25 1 -0.8 1.57950742902157 7.731198265219719 2.353429660084839
26 1 -0.8 1.872356130816064 7.739331083256308 6.866735493197875
27 1 -0.8 1.816471804371854 3.888468892144188 2.813266421691955
28 1 -0.8 1.508547067417992 3.82072842711939 6.54890771423666
29 1 -0.8 5.698056199261009 7.750630662984745 2.547563280436954
30 1 -0.8 5.558814327616082 0.080118178758258 6.625384813049012
31 1 -0.8 5.310031900151608 3.968317052593829 2.32846024776169
32 1 -0.8 5.765302315914413 3.848549078224158 6.723360565662989
33 1 -0.8 1.939488686192876 2.253173400028306 0.3771358441903872
34 1 -0.8 1.735200637351804 1.680381413290712 4.651219407727718
35 1 -0.8 1.58457114496141 5.741195366775572 0.4007860034432256
36 1 -0.8 1.817812122198516 6.029800646687577 4.677744293558669
37 1 -0.8 5.693591239806151 1.91949429973324 0.407450130918336
38 1 -0.8 5.655144697283874 2.154435748490462 4.467467018738151
39 1 -0.8 5.538993618545989 5.795345323968881 0.3803866156307328
40 1 -0.8 5.814478304706826 5.647508477124843 4.606445468056166
