ITEM: TIMESTEP
0
ITEM: NUMBER OF ATOMS
40
ITEM: BOX BOUNDS pp pp pp
0.0000000000000000e+00 7.7569178000000001e+00
0.0000000000000000e+00 7.7569178000000001e+00
0.0000000000000000e+00 8.3677094400000005e+00
ITEM: ATOMS id fx fy fz
1    -0.08238082093059     -0.2647484148842     -0.1031108586453
2     -0.2575022068549      0.2470619116202      0.1679490915694
3     -0.3974159260781     0.01984639936545     -0.2365330256745
4     0.07310453458789      0.1496607909895       1.070170647523
5     -0.1603031729443     -0.3946549479344      0.1292156959839
6     -0.6772347201259     0.06098094670471      -0.231850869421
7       0.315081110727     0.07347456203498     -0.2141694245693
8     -0.3885553447193      -0.540013096788      0.1036116469853
9     -0.2090359439275      0.3626713998874      0.5054867981627
10      0.3173511852038     -0.3687952446056      0.0263081673292
11      0.6306416848666      0.1096976413182       1.148237729133
12     -0.4722568678205      0.8164239318641     -0.5141017210287
13      0.3919568109109      0.7661463818965    0.008528252902427
14      -1.100380630272  -0.0007063707513385     -0.1382905752699
15     -0.3239050038705     -0.1882342199822       1.104938310816
16    -0.07955652047993      0.2030297135336     -0.4418112555472
17     -0.1213350949152      0.2191959879198      0.2309137965855
18       1.119015500893     -0.4425323813007    -0.08455111675128
19    -0.07920457847291     -0.3853533755224     0.05824639435225
20     -0.7838230209887     -0.5979689551095     -0.7818327396194
21     -0.1636967342707     -0.8145743674279    -0.06269906668827
22     -0.5599948114588     -0.3556000435164     -0.2079516682736
23     -0.8133475114359       0.129437798486    -0.01642355599171
24      0.3349576131758     -0.3214220762469    -0.05987458106416
25      0.7301502084261       0.532289392713      0.1979408011367
26      0.3758324350824      0.7580418557999       0.206301199724
27      0.3361499221132      0.1972222543985     -0.3429834962713
28      0.5618786317284      0.5815868129024     -0.7972829859259
29    -0.01280944574141       0.439500395967       -0.10427238485
30    0.006058431634054     -0.7827630398242     -0.1751169125344
31       0.778866408661     -0.6144382890922     0.05878414601905
32     0.08441892761397       0.957426910893      0.1404086032512
33     -0.2781065705223     -0.5933817466804      0.1051969268258
34      0.1707040534503      0.2646391100116     -0.2341743389068
35      0.8371049694446     -0.4027276948537     -0.3208337964392
36     -0.2162040215671     -0.2842735472856    -0.04413614622286
37     -0.3398963654035    -0.06059716987448      0.4666476905443
38     0.09446123137701     -0.3974443094577     -0.1415038418612
39      0.6385715330921      0.6330821714149     -0.8525575320657
40     -0.2793598801881       0.288812921417      0.3771759947775
