O  Pb Ti
 1.0000000000000000
     3.9849754873291907    0.0000000000000000    0.0000000000000000
     0.0000000000000000    3.9849754873291907    0.0000000000000000
     0.0000000000000000    0.0000000000000000    3.9849754873291907
 O   Pb  Ti 
   3   1   1
Direct
  0.5000000000000000  0.5000000000000000  0.1120000000000000
  0.5000000000000000  0.0000000000000000  0.6120000000000000
  0.0000000000000000  0.5000000000000000  0.6120000000000000
  0.0000000000000000  0.0000000000000000  0.0000000000000000
  0.5000000000000000  0.5000000000000000  0.5380000000000000
