O  Pb Ti
 1.0000000000000000
     4.0583333333333327    0.0000000000000000    0.0000000000000000
     0.0000000000000000    4.0583333333333327    0.0000000000000000
     0.0000000000000000    0.0000000000000000    4.0583333333333327
 O   Pb  Ti 
   3   1   1
Direct
  0.5000000000000000  0.5000000000000000  0.0000000000000000
  0.5000000000000000  0.0000000000000000  0.5000000000000000
  0.0000000000000000  0.5000000000000000  0.5000000000000000
  0.0000000000000000  0.0000000000000000  0.0000000000000000
  0.5000000000000000  0.5000000000000000  0.5000000000000000
