O  Pb Ti
 1.0000000000000000
     3.8840463370980043    0.0000000000000000    0.0000000000000000
     0.0000000000000000    3.8840463370980043    0.0000000000000000
     0.0000000000000000    0.0000000000000000    4.1947700440658453
 O   Pb  Ti 
   3   1   1
Direct
  0.5000000000000000  0.5000000000000000  0.1120000000000000
  0.5000000000000000  0.0000000000000000  0.6120000000000000
  0.0000000000000000  0.5000000000000000  0.6120000000000000
  0.0000000000000000  0.0000000000000000  0.0000000000000000
  0.5000000000000000  0.5000000000000000  0.5380000000000001
